% Auto-generated by scripts/generate_dzn.py
% problem_type   = regex
% instance       = regex_75
% source_json    = instances_json/1_medium_blowup/regex_75.json
% blowup         = 4.357142857142857
% representation = DFA

mode = 0;

var_count = 18;
n_constraints = 2;
Q = 55;
S = 3;
q0 = [1, 1];
F = [{35, 36, 37, 38, 39, 40, 41, 42, 43, 44, 45, 46, 47, 48, 49, 50, 51, 52, 53, 54, 55}, {5}];
weights = [6, 1, 1, 8, 8, 6, 9, 7, 2, 6, 8, 7, 3, 9, 4, 9, 9, 9];
d_dfa = array3d(1..2, 1..55, 1..3, [
  % k = 1
    1, 1, 2,
    3, 1, 2,
    5, 5, 4,
    7, 8, 6,
    8, 8, 6,
    10, 11, 9,
    13, 13, 12,
    11, 11, 9,
    15, 16, 14,
    18, 18, 17,
    16, 16, 14,
    20, 21, 19,
    21, 21, 19,
    23, 24, 22,
    26, 26, 25,
    24, 24, 22,
    28, 29, 27,
    29, 29, 27,
    31, 32, 30,
    34, 34, 33,
    32, 32, 30,
    36, 37, 35,
    39, 39, 38,
    37, 37, 35,
    41, 42, 40,
    42, 42, 40,
    44, 45, 43,
    47, 47, 46,
    45, 45, 43,
    49, 50, 48,
    52, 52, 51,
    50, 50, 48,
    54, 55, 53,
    55, 55, 53,
    3, 1, 2,
    5, 5, 4,
    1, 1, 2,
    7, 8, 6,
    8, 8, 6,
    10, 11, 9,
    13, 13, 12,
    11, 11, 9,
    15, 16, 14,
    18, 18, 17,
    16, 16, 14,
    20, 21, 19,
    21, 21, 19,
    23, 24, 22,
    26, 26, 25,
    24, 24, 22,
    28, 29, 27,
    29, 29, 27,
    31, 32, 30,
    34, 34, 33,
    32, 32, 30,

  % k = 2
    2, 1, 1,
    3, 2, 2,
    4, 3, 3,
    5, 4, 4,
    6, 5, 5,
    6, 6, 6,
    0, 0, 0,
    0, 0, 0,
    0, 0, 0,
    0, 0, 0,
    0, 0, 0,
    0, 0, 0,
    0, 0, 0,
    0, 0, 0,
    0, 0, 0,
    0, 0, 0,
    0, 0, 0,
    0, 0, 0,
    0, 0, 0,
    0, 0, 0,
    0, 0, 0,
    0, 0, 0,
    0, 0, 0,
    0, 0, 0,
    0, 0, 0,
    0, 0, 0,
    0, 0, 0,
    0, 0, 0,
    0, 0, 0,
    0, 0, 0,
    0, 0, 0,
    0, 0, 0,
    0, 0, 0,
    0, 0, 0,
    0, 0, 0,
    0, 0, 0,
    0, 0, 0,
    0, 0, 0,
    0, 0, 0,
    0, 0, 0,
    0, 0, 0,
    0, 0, 0,
    0, 0, 0,
    0, 0, 0,
    0, 0, 0,
    0, 0, 0,
    0, 0, 0,
    0, 0, 0,
    0, 0, 0,
    0, 0, 0,
    0, 0, 0,
    0, 0, 0,
    0, 0, 0,
    0, 0, 0,
    0, 0, 0
]);
d_nfa = array3d(1..2, 1..55, 1..3, [
  % k = 1
    {}, {}, {},
    {}, {}, {},
    {}, {}, {},
    {}, {}, {},
    {}, {}, {},
    {}, {}, {},
    {}, {}, {},
    {}, {}, {},
    {}, {}, {},
    {}, {}, {},
    {}, {}, {},
    {}, {}, {},
    {}, {}, {},
    {}, {}, {},
    {}, {}, {},
    {}, {}, {},
    {}, {}, {},
    {}, {}, {},
    {}, {}, {},
    {}, {}, {},
    {}, {}, {},
    {}, {}, {},
    {}, {}, {},
    {}, {}, {},
    {}, {}, {},
    {}, {}, {},
    {}, {}, {},
    {}, {}, {},
    {}, {}, {},
    {}, {}, {},
    {}, {}, {},
    {}, {}, {},
    {}, {}, {},
    {}, {}, {},
    {}, {}, {},
    {}, {}, {},
    {}, {}, {},
    {}, {}, {},
    {}, {}, {},
    {}, {}, {},
    {}, {}, {},
    {}, {}, {},
    {}, {}, {},
    {}, {}, {},
    {}, {}, {},
    {}, {}, {},
    {}, {}, {},
    {}, {}, {},
    {}, {}, {},
    {}, {}, {},
    {}, {}, {},
    {}, {}, {},
    {}, {}, {},
    {}, {}, {},
    {}, {}, {},

  % k = 2
    {}, {}, {},
    {}, {}, {},
    {}, {}, {},
    {}, {}, {},
    {}, {}, {},
    {}, {}, {},
    {}, {}, {},
    {}, {}, {},
    {}, {}, {},
    {}, {}, {},
    {}, {}, {},
    {}, {}, {},
    {}, {}, {},
    {}, {}, {},
    {}, {}, {},
    {}, {}, {},
    {}, {}, {},
    {}, {}, {},
    {}, {}, {},
    {}, {}, {},
    {}, {}, {},
    {}, {}, {},
    {}, {}, {},
    {}, {}, {},
    {}, {}, {},
    {}, {}, {},
    {}, {}, {},
    {}, {}, {},
    {}, {}, {},
    {}, {}, {},
    {}, {}, {},
    {}, {}, {},
    {}, {}, {},
    {}, {}, {},
    {}, {}, {},
    {}, {}, {},
    {}, {}, {},
    {}, {}, {},
    {}, {}, {},
    {}, {}, {},
    {}, {}, {},
    {}, {}, {},
    {}, {}, {},
    {}, {}, {},
    {}, {}, {},
    {}, {}, {},
    {}, {}, {},
    {}, {}, {},
    {}, {}, {},
    {}, {}, {},
    {}, {}, {},
    {}, {}, {},
    {}, {}, {},
    {}, {}, {},
    {}, {}, {}
]);
